59
120
96	3
95	2
94	1
93	3
92	1
91	1
90	2
89	1
88	2
85	1
84	1
82	1
81	5
80	1
79	1
78	1
77	1
76	3
75	1
74	1
73	1
72	2
71	4
70	1
69	1
68	1
67	1
65	1
63	1
62	2
61	2
59	1
58	2
57	1
56	1
55	1
54	3
53	3
52	3
51	1
50	1
48	3
47	2
45	1
44	2
42	1
41	2
39	2
36	1
35	3
34	1
33	3
32	1
31	1
29	2
28	1
27	1
26	4
25	2
